24
10
8 5 2 23 17 21 15 0 14 11 12 1 22
8 15 18 20 7 16 22 0 17 2 1 14 21 13 23 6 5 9 10 11
12 4 11 22 13 3 9 8 16 1 17 14 10 23 2 20 6 21
1 8 13 7 16 5 6 11 2 23 0 10
8 17 23 11 20 15 3 14 22 6 5 21 2 12 10 18 16
14 9 20 5 10 0 22 18 15 6 19 7 8 13 17 23 2 16 21 11 12 3 4
2 22 5 9 11 16 17 13 7 0 12 21 20 3 6 23 14 1 4 19
14 23 17 3 7 10 19 20 2 22 21 12 0 4 9 16 11 6 1 15 5 13 18
8 2 4 20
22 1 0 11 5 7 12 19
